%pal	
nprocs	2
end

%cpcm
smd true
solvent "Water"
end

%scf
MaxIter 150
end

!B3LYP 6-31G** TightSCF printbasis

%basis 

NewGTO Br
S   6
  1 113718.2000000              0.0017176960
  2  17074.4400000              0.0131674400
  3   3889.5760000              0.0650455300
  4   1097.0960000              0.2269505000
  5    352.0624000              0.4768357000
  6    120.7002000              0.3583677000
S   6
  1   2471.1380000              0.0022436870
  2    589.3838000              0.0299485300
  3    191.8738000              0.1256009000
  4     72.9533900             -0.0009832786
  5     30.0583900             -0.6013141000
  6     12.5292700             -0.4913983000
P   6
  1   2471.1380000              0.0037901820
  2    589.3838000              0.0299597900
  3    191.8738000              0.1318228000
  4     72.9533900              0.3432708000
  5     30.0583900              0.4642345000
  6     12.5292700              0.2079387000
S   6
  1    109.6411000             -0.0059756830
  2     38.5894800              0.0554212200
  3     16.3781800              0.2681200000
  4      7.2218360             -0.1543606000
  5      3.2636970             -0.7206306000
  6      1.4654990             -0.3316437000
P   6
  1    109.6411000             -0.0069074830
  2     38.5894800             -0.0304143200
  3     16.3781800              0.0460272500
  4      7.2218360              0.3650689000
  5      3.2636970              0.4949232000
  6      1.4654990              0.2090394000
S   3
  1      2.1036510              0.3029029000
  2      0.7547050             -0.2152659000
  3      0.3005140             -0.9633941000 
P   3
  1      2.1036510             -0.0282671400
  2      0.7547050              0.3503065000
  3      0.3005140              0.7182446000
S   1
  1      0.1090710              1.0000000000
P   1
  1      0.1090710              1.0000000000
D   3
  1     62.2551400              0.0770422900     
  2     17.3128400              0.3707384000     
  3      5.6079150              0.7097628000     
D   1
  1      1.7464860              1.0000000        
D   1
  1      0.4366000              1.0000000        
 end
end

*xyz 0 1
  O      1.06410060      3.67228022     -5.60379125
  O      3.82654491      3.49202076     -5.51588565
  H      3.03974249      1.55849937     -5.31442271
  C      3.41694797      2.39626730     -4.71287992
  C      1.01987765      3.19784571     -4.46777802
  H     -1.13502341      3.39893693     -4.24787370
  C      2.33419385      2.88122453     -3.72222315
  H      4.28522439      2.05981735     -4.14431390
  C     -0.24573441      3.00646374     -3.77009468
  C      2.16771678      1.92117657     -2.53966884
  C     -0.30087064      2.32657068     -2.60142926
  O      3.17577492      1.36586024     -2.07066809
  C      0.84810192      1.72671116     -1.94472906
 Br     -2.02411259      2.11191920     -1.78625241
  C      0.76914503      0.96388751     -0.79361118
  O      1.79636605      0.39013157     -0.22331173
  H      2.59775460      0.61989918     -0.79665827
  H     -0.17502643      0.79745239     -0.28214606
  O      2.76069809      4.11104942     -3.13362763
  H      3.32621819      4.50849467     -3.82390268
  H      3.03225171      3.74431210     -6.02191349
*
