# Below will be the typical input for an ORCA B3LYP 6-31G* energy calculation
# This file was created on 10-21-2020 by Kevin Skinner

%scf
 MaxIter 300
 TolE 1e-6
end

! B3LYP 6-31G* Opt
* xyz 0 1
C       -0.7119633153      1.7228710709     -0.0000000000
C       -1.9248176832      1.0261643340     -0.0000000000
C        0.4982945295      1.0212786029     -0.0000000000
C       -1.9278751843     -0.3725518103     -0.0000000000
C       -0.7182115196     -1.0751680471      0.0000000000
C        0.4963102413     -0.3787446968      0.0000000000
H       -0.7098650444      2.8052086407     -0.0000000000
H        1.4344697984      1.5646034774     -0.0000000000
H       -2.8609615117      1.5693807590     -0.0000000000
H       -2.8665241254     -0.9114367579     -0.0000000000
H       -0.7253921554     -2.1575610200      0.0000000000
Br       2.1481815053     -1.3372777108      0.0000000000
*
